(set-info :smt-lib-version 2.6)
(set-logic QF_LIA)
(set-info :source |
Alberto Griggio

|)
(set-info :category "random")
(set-info :status sat)
(declare-fun x0 () Int)
(declare-fun x1 () Int)
(declare-fun x2 () Int)
(declare-fun x3 () Int)
(declare-fun x4 () Int)
(declare-fun x5 () Int)
(declare-fun x6 () Int)
(declare-fun x7 () Int)
(declare-fun x8 () Int)
(declare-fun x9 () Int)
(declare-fun x10 () Int)
(declare-fun x11 () Int)
(declare-fun x12 () Int)
(declare-fun x13 () Int)
(declare-fun x14 () Int)
(declare-fun x15 () Int)
(declare-fun x16 () Int)
(declare-fun x17 () Int)
(declare-fun x18 () Int)
(declare-fun x19 () Int)
(declare-fun x20 () Int)
(declare-fun x21 () Int)
(declare-fun x22 () Int)
(declare-fun x23 () Int)
(declare-fun x24 () Int)
(declare-fun x25 () Int)
(declare-fun x26 () Int)
(declare-fun x27 () Int)
(declare-fun x28 () Int)
(declare-fun x29 () Int)
(declare-fun x30 () Int)
(declare-fun x31 () Int)
(declare-fun x32 () Int)
(declare-fun x33 () Int)
(declare-fun x34 () Int)
(declare-fun x35 () Int)
(declare-fun x36 () Int)
(declare-fun x37 () Int)
(declare-fun x38 () Int)
(declare-fun x39 () Int)
(declare-fun x40 () Int)
(declare-fun x41 () Int)
(declare-fun x42 () Int)
(declare-fun x43 () Int)
(declare-fun x44 () Int)
(assert (let ((?v_70 (* 1 x17)) (?v_47 (* 0 x22)) (?v_36 (* 1 x25)) (?v_92 (* 1 x8)) (?v_96 (* 1 x7)) (?v_72 (* 0 x11)) (?v_2 (* 0 x34)) (?v_11 (* 0 x19)) (?v_12 (* 0 x39)) (?v_14 (* 0 x12)) (?v_16 (* 1 x14)) (?v_3 (* 1 x38)) (?v_1 (* 0 x28)) (?v_37 (* 1 x41)) (?v_35 (* 0 x20)) (?v_7 (* 1 x2)) (?v_33 (* 1 x15)) (?v_21 (* 0 x14)) (?v_45 (* 0 x37)) (?v_27 (* 1 x44)) (?v_75 (* 1 x37)) (?v_49 (* 1 x10)) (?v_13 (* 1 x35)) (?v_8 (* 1 x27)) (?v_6 (* 0 x40)) (?v_4 (* 0 x10)) (?v_31 (* 0 x41)) (?v_22 (* 0 x31)) (?v_67 (* 1 x43)) (?v_26 (* 1 x1)) (?v_46 (* 1 x16)) (?v_24 (* 0 x27)) (?v_28 (* 0 x0)) (?v_93 (* 0 x32)) (?v_65 (* 1 x0)) (?v_125 (* 1 x42)) (?v_74 (* 0 x23)) (?v_17 (* 0 x26)) (?v_20 (* 0 x38)) (?v_123 (* 1 x36)) (?v_9 (* 0 x44)) (?v_18 (* 0 x29)) (?v_30 (* 1 x30)) (?v_39 (* 1 x29)) (?v_23 (* 0 x24)) (?v_63 (* 0 x25)) (?v_56 (* 1 x19)) (?v_83 (* 1 x28)) (?v_29 (* 1 x5)) (?v_82 (* 1 x4)) (?v_62 (* 1 x32)) (?v_71 (* 1 x22)) (?v_42 (* 1 x33)) (?v_43 (* 0 x8)) (?v_44 (* 1 x11)) (?v_52 (* 0 x42)) (?v_64 (* 1 x18)) (?v_38 (* 0 x16)) (?v_50 (* 0 x2)) (?v_79 (* 1 x9)) (?v_40 (* 0 x36)) (?v_53 (* 0 x3)) (?v_98 (* 1 x3)) (?v_66 (* 0 x9)) (?v_68 (* 0 x43)) (?v_57 (* 0 x1)) (?v_73 (* 1 x12)) (?v_32 (* 0 x15)) (?v_77 (* 0 x17)) (?v_108 (* 1 x24)) (?v_99 (* 1 x26)) (?v_85 (* 1 x23)) (?v_94 (* 1 x21)) (?v_78 (* 1 x20)) (?v_61 (* 0 x30)) (?v_114 (* 1 x31)) (?v_48 (* 0 x18)) (?v_133 (* 1 x34)) (?v_59 (* 0 x4)) (?v_107 (* 1 x40)) (?v_86 (* 0 x21)) (?v_112 (* 1 x39)) (?v_111 (* 0 x7)) (?v_115 (* 0 x5)) (?v_120 (* 1 x6)) (?v_58 (* 0 x35)) (?v_129 (* 1 x13)) (?v_91 (* 0 x33)) (?v_106 (* 0 x13)) (?v_60 (* 0 x6)) (?v_5 (* (- 1) x36)) (?v_109 (* (- 1) x33)) (?v_25 (* (- 1) x18)) (?v_0 (* (- 1) x29)) (?v_51 (* (- 1) x41)) (?v_41 (* (- 1) x40)) (?v_10 (* (- 1) x30)) (?v_88 (* (- 1) x22)) (?v_104 (* (- 1) x44)) (?v_131 (* (- 1) x17)) (?v_19 (* (- 1) x25)) (?v_126 (* (- 1) x2)) (?v_119 (* (- 1) x4)) (?v_15 (* (- 1) x35)) (?v_110 (* (- 1) x32)) (?v_55 (* (- 1) x16)) (?v_89 (* (- 1) x23)) (?v_84 (* (- 1) x31)) (?v_34 (* (- 1) x7)) (?v_80 (* (- 1) x6)) (?v_117 (* (- 1) x37)) (?v_103 (* (- 1) x28)) (?v_113 (* (- 1) x10)) (?v_76 (* (- 1) x5)) (?v_95 (* (- 1) x9)) (?v_81 (* (- 1) x14)) (?v_69 (* (- 1) x20)) (?v_87 (* (- 1) x0)) (?v_100 (* (- 1) x11)) (?v_102 (* (- 1) x38)) (?v_101 (* (- 1) x12)) (?v_54 (* (- 1) x27)) (?v_105 (* (- 1) x8)) (?v_121 (* (- 1) x39)) (?v_118 (* (- 1) x1)) (?v_90 (* (- 1) x43)) (?v_127 (* (- 1) x13)) (?v_97 (* (- 1) x24)) (?v_124 (* (- 1) x42)) (?v_116 (* (- 1) x3)) (?v_122 (* (- 1) x21)) (?v_128 (* (- 1) x26)) (?v_130 (* (- 1) x15)) (?v_132 (* (- 1) x34))) (and (<= (+ ?v_70 ?v_47 ?v_36 ?v_92 ?v_4 ?v_96 ?v_72 ?v_48 ?v_5 ?v_109 ?v_25 ?v_2 ?v_58 ?v_11 ?v_12 ?v_14 ?v_16 ?v_3 ?v_1 ?v_17 ?v_0 ?v_37 ?v_35 ?v_51 ?v_41 ?v_10 ?v_7 ?v_88 ?v_33 ?v_38 ?v_0 ?v_1 ?v_2 ?v_2 ?v_3 ?v_23 ?v_104 ?v_21 ?v_131 ?v_45 ?v_19 ?v_27 ?v_75 ?v_126 ?v_4) (- 1)) (<= (+ ?v_49 ?v_13 ?v_119 ?v_8 ?v_6 ?v_40 ?v_4 ?v_31 ?v_5 ?v_15 ?v_22 ?v_110 ?v_55 ?v_67 ?v_26 ?v_46 ?v_24 ?v_89 ?v_9 ?v_6 ?v_7 ?v_28 ?v_84 ?v_34 ?v_93 ?v_8 ?v_9 ?v_10 ?v_65 ?v_4 ?v_11 ?v_12 ?v_13 ?v_125 ?v_14 ?v_74 ?v_15 ?v_80 ?v_10 ?v_16 ?v_17 ?v_1 ?v_117 ?v_20 ?v_10) 0) (<= (+ ?v_17 ?v_123 ?v_18 ?v_4 ?v_103 ?v_12 ?v_9 ?v_5 ?v_18 ?v_113 ?v_60 ?v_19 ?v_76 ?v_20 ?v_59 ?v_21 ?v_22 ?v_30 ?v_61 ?v_39 ?v_1 ?v_95 ?v_23 ?v_24 ?v_25 ?v_26 ?v_7 ?v_32 ?v_63 ?v_12 ?v_56 ?v_115 ?v_83 ?v_12 ?v_29 ?v_27 ?v_81 ?v_82 ?v_69 ?v_12 ?v_62 ?v_106 ?v_28 ?v_29 ?v_71) 1) (<= (+ ?v_29 ?v_30 ?v_19 ?v_1 ?v_30 ?v_86 ?v_31 ?v_87 ?v_32 ?v_33 ?v_34 ?v_57 ?v_29 ?v_35 ?v_42 ?v_19 ?v_43 ?v_44 ?v_52 ?v_4 ?v_4 ?v_64 ?v_6 ?v_14 ?v_36 ?v_18 ?v_30 ?v_37 ?v_38 ?v_39 ?v_50 ?v_15 ?v_36 ?v_31 ?v_40 ?v_41 ?v_22 ?v_100 ?v_42 ?v_18 ?v_43 ?v_0 ?v_79 ?v_40 ?v_53) 0) (<= (+ ?v_11 ?v_44 ?v_98 ?v_12 ?v_45 ?v_46 ?v_102 ?v_33 ?v_101 ?v_38 ?v_29 ?v_47 ?v_48 ?v_49 ?v_37 ?v_66 ?v_50 ?v_27 ?v_51 ?v_45 ?v_54 ?v_52 ?v_53 ?v_42 ?v_31 ?v_54 ?v_0 ?v_55 ?v_56 ?v_4 ?v_5 ?v_91 ?v_11 ?v_68 ?v_57 ?v_58 ?v_56 ?v_29 ?v_105 ?v_59 ?v_32 ?v_57 ?v_45 ?v_60 ?v_38) 0) (<= (+ ?v_35 ?v_2 ?v_73 ?v_31 ?v_61 ?v_32 ?v_27 ?v_77 ?v_6 ?v_9 ?v_62 ?v_17 ?v_29 ?v_63 ?v_33 ?v_64 ?v_10 ?v_108 ?v_65 ?v_66 ?v_67 ?v_39 ?v_99 ?v_53 ?v_66 ?v_47 ?v_68 ?v_69 ?v_70 ?v_3 ?v_85 ?v_20 ?v_2 ?v_30 ?v_71 ?v_7 ?v_20 ?v_121 ?v_94 ?v_12 ?v_41 ?v_78 ?v_72 ?v_36 ?v_61) 0) (<= (+ ?v_7 ?v_25 ?v_73 ?v_61 ?v_40 ?v_15 ?v_73 ?v_9 ?v_45 ?v_61 ?v_74 ?v_40 ?v_75 ?v_76 ?v_77 ?v_78 ?v_60 ?v_79 ?v_39 ?v_40 ?v_111 ?v_35 ?v_114 ?v_47 ?v_19 ?v_80 ?v_1 ?v_81 ?v_42 ?v_12 ?v_82 ?v_8 ?v_83 ?v_54 ?v_38 ?v_6 ?v_5 ?v_74 ?v_43 ?v_1 ?v_61 ?v_61 ?v_42 ?v_84 ?v_85) (- 1)) (<= (+ ?v_64 ?v_79 ?v_30 ?v_78 ?v_71 ?v_80 ?v_0 ?v_53 ?v_20 ?v_56 ?v_48 ?v_4 ?v_48 ?v_86 ?v_40 ?v_33 ?v_9 ?v_50 ?v_54 ?v_118 ?v_43 ?v_57 ?v_90 ?v_35 ?v_127 ?v_87 ?v_35 ?v_88 ?v_87 ?v_71 ?v_9 ?v_7 ?v_50 ?v_89 ?v_43 ?v_11 ?v_77 ?v_45 ?v_57 ?v_40 ?v_133 ?v_35 ?v_59 ?v_73 ?v_24) (- 1)) (<= (+ ?v_30 ?v_107 ?v_83 ?v_90 ?v_91 ?v_35 ?v_87 ?v_81 ?v_92 ?v_20 ?v_38 ?v_87 ?v_93 ?v_32 ?v_77 ?v_45 ?v_6 ?v_54 ?v_61 ?v_59 ?v_94 ?v_43 ?v_95 ?v_91 ?v_11 ?v_96 ?v_97 ?v_97 ?v_48 ?v_98 ?v_80 ?v_99 ?v_43 ?v_20 ?v_70 ?v_65 ?v_20 ?v_53 ?v_16 ?v_99 ?v_50 ?v_31 ?v_38 ?v_100 ?v_41) 1) (<= (+ ?v_86 ?v_14 ?v_66 ?v_2 ?v_32 ?v_101 ?v_50 ?v_102 ?v_35 ?v_56 ?v_31 ?v_86 ?v_1 ?v_52 ?v_103 ?v_104 ?v_17 ?v_58 ?v_99 ?v_105 ?v_13 ?v_70 ?v_98 ?v_106 ?v_15 ?v_35 ?v_46 ?v_107 ?v_14 ?v_36 ?v_124 ?v_51 ?v_107 ?v_53 ?v_108 ?v_1 ?v_1 ?v_112 ?v_53 ?v_104 ?v_109 ?v_62 ?v_50 ?v_30 ?v_23) 0) (<= (+ ?v_35 ?v_66 ?v_58 ?v_83 ?v_116 ?v_53 ?v_27 ?v_98 ?v_109 ?v_5 ?v_110 ?v_28 ?v_108 ?v_41 ?v_47 ?v_101 ?v_35 ?v_2 ?v_106 ?v_62 ?v_20 ?v_34 ?v_68 ?v_111 ?v_52 ?v_65 ?v_4 ?v_10 ?v_96 ?v_72 ?v_18 ?v_47 ?v_86 ?v_66 ?v_47 ?v_23 ?v_8 ?v_18 ?v_50 ?v_17 ?v_112 ?v_68 ?v_20 ?v_113 ?v_45) 0) (<= (+ ?v_21 ?v_98 ?v_55 ?v_0 ?v_0 ?v_77 ?v_104 ?v_63 ?v_122 ?v_24 ?v_87 ?v_57 ?v_50 ?v_114 ?v_53 ?v_27 ?v_42 ?v_87 ?v_104 ?v_111 ?v_72 ?v_27 ?v_20 ?v_100 ?v_93 ?v_21 ?v_115 ?v_28 ?v_16 ?v_116 ?v_2 ?v_30 ?v_43 ?v_23 ?v_30 ?v_59 ?v_32 ?v_22 ?v_110 ?v_50 ?v_106 ?v_24 ?v_28 ?v_108 ?v_113) 1) (<= (+ ?v_4 ?v_56 ?v_128 ?v_27 ?v_27 ?v_103 ?v_72 ?v_61 ?v_60 ?v_36 ?v_55 ?v_102 ?v_26 ?v_32 ?v_50 ?v_31 ?v_109 ?v_93 ?v_84 ?v_43 ?v_11 ?v_37 ?v_130 ?v_93 ?v_9 ?v_19 ?v_77 ?v_60 ?v_93 ?v_80 ?v_93 ?v_117 ?v_62 ?v_76 ?v_66 ?v_31 ?v_4 ?v_4 ?v_118 ?v_86 ?v_11 ?v_72 ?v_9 ?v_2 ?v_40) 1) (<= (+ ?v_46 ?v_74 ?v_18 ?v_35 ?v_48 ?v_52 ?v_115 ?v_11 ?v_35 ?v_35 ?v_27 ?v_54 ?v_24 ?v_23 ?v_93 ?v_60 ?v_85 ?v_61 ?v_2 ?v_120 ?v_3 ?v_96 ?v_24 ?v_105 ?v_66 ?v_56 ?v_59 ?v_32 ?v_119 ?v_120 ?v_9 ?v_117 ?v_61 ?v_45 ?v_58 ?v_72 ?v_43 ?v_74 ?v_12 ?v_102 ?v_112 ?v_44 ?v_17 ?v_61 ?v_121) 0) (<= (+ ?v_108 ?v_68 ?v_62 ?v_57 ?v_110 ?v_115 ?v_66 ?v_13 ?v_80 ?v_61 ?v_18 ?v_18 ?v_61 ?v_122 ?v_22 ?v_123 ?v_86 ?v_70 ?v_10 ?v_9 ?v_102 ?v_47 ?v_48 ?v_83 ?v_87 ?v_25 ?v_4 ?v_7 ?v_62 ?v_124 ?v_6 ?v_81 ?v_80 ?v_119 ?v_85 ?v_28 ?v_1 ?v_125 ?v_25 ?v_24 ?v_52 ?v_55 ?v_74 ?v_72 ?v_28) 0) (<= (+ ?v_86 ?v_58 ?v_18 ?v_121 ?v_15 ?v_50 ?v_21 ?v_34 ?v_66 ?v_17 ?v_84 ?v_58 ?v_6 ?v_98 ?v_53 ?v_40 ?v_17 ?v_22 ?v_77 ?v_87 ?v_99 ?v_126 ?v_95 ?v_17 ?v_67 ?v_76 ?v_51 ?v_114 ?v_65 ?v_112 ?v_8 ?v_102 ?v_85 ?v_27 ?v_63 ?v_121 ?v_129 ?v_127 ?v_107 ?v_128 ?v_125 ?v_20 ?v_53 ?v_30 ?v_110) (- 1)) (<= (+ ?v_78 ?v_75 ?v_124 ?v_83 ?v_17 ?v_91 ?v_76 ?v_98 ?v_66 ?v_83 ?v_128 ?v_112 ?v_35 ?v_89 ?v_13 ?v_105 ?v_97 ?v_23 ?v_111 ?v_68 ?v_29 ?v_68 ?v_37 ?v_62 ?v_76 ?v_50 ?v_74 ?v_109 ?v_4 ?v_28 ?v_43 ?v_74 ?v_61 ?v_6 ?v_123 ?v_87 ?v_74 ?v_129 ?v_132 ?v_59 ?v_37 ?v_87 ?v_130 ?v_25 ?v_12) (- 1)) (<= (+ ?v_59 ?v_65 ?v_74 ?v_58 ?v_7 ?v_78 ?v_119 ?v_6 ?v_19 ?v_44 ?v_60 ?v_53 ?v_83 ?v_77 ?v_34 ?v_86 ?v_89 ?v_86 ?v_126 ?v_53 ?v_84 ?v_42 ?v_33 ?v_17 ?v_64 ?v_102 ?v_29 ?v_10 ?v_82 ?v_59 ?v_113 ?v_91 ?v_35 ?v_49 ?v_102 ?v_32 ?v_129 ?v_45 ?v_75 ?v_104 ?v_17 ?v_62 ?v_40 ?v_106 ?v_93) (- 1)) (<= (+ ?v_85 ?v_28 ?v_131 ?v_39 ?v_31 ?v_60 ?v_59 ?v_59 ?v_6 ?v_6 ?v_52 ?v_122 ?v_111 ?v_116 ?v_86 ?v_99 ?v_111 ?v_18 ?v_132 ?v_28 ?v_26 ?v_16 ?v_38 ?v_106 ?v_127 ?v_109 ?v_84 ?v_0 ?v_105 ?v_26 ?v_17 ?v_4 ?v_115 ?v_86 ?v_73 ?v_48 ?v_92 ?v_114 ?v_57 ?v_77 ?v_39 ?v_24 ?v_98 ?v_28 ?v_61) 1) (<= (+ ?v_48 ?v_25 ?v_111 ?v_48 ?v_8 ?v_74 ?v_110 ?v_54 ?v_24 ?v_28 ?v_17 ?v_21 ?v_84 ?v_116 ?v_1 ?v_53 ?v_38 ?v_31 ?v_49 ?v_114 ?v_12 ?v_115 ?v_115 ?v_112 ?v_31 ?v_53 ?v_13 ?v_56 ?v_57 ?v_116 ?v_23 ?v_117 ?v_97 ?v_13 ?v_111 ?v_119 ?v_48 ?v_28 ?v_24 ?v_3 ?v_63 ?v_15 ?v_23 ?v_75 ?v_109) 1) (<= (+ ?v_1 ?v_50 ?v_63 ?v_118 ?v_71 ?v_123 ?v_119 ?v_103 ?v_14 ?v_52 ?v_41 ?v_6 ?v_97 ?v_3 ?v_41 ?v_74 ?v_97 ?v_30 ?v_84 ?v_37 ?v_56 ?v_40 ?v_92 ?v_57 ?v_32 ?v_27 ?v_11 ?v_62 ?v_0 ?v_5 ?v_77 ?v_20 ?v_131 ?v_107 ?v_98 ?v_12 ?v_5 ?v_115 ?v_110 ?v_62 ?v_48 ?v_103 ?v_96 ?v_88 ?v_117) 0) (<= (+ ?v_73 ?v_2 ?v_28 ?v_22 ?v_59 ?v_24 ?v_43 ?v_43 ?v_21 ?v_46 ?v_60 ?v_14 ?v_91 ?v_98 ?v_95 ?v_84 ?v_4 ?v_0 ?v_36 ?v_47 ?v_80 ?v_130 ?v_46 ?v_50 ?v_60 ?v_57 ?v_123 ?v_43 ?v_68 ?v_68 ?v_7 ?v_58 ?v_54 ?v_114 ?v_42 ?v_120 ?v_33 ?v_102 ?v_117 ?v_83 ?v_12 ?v_128 ?v_130 ?v_20 ?v_131) (- 1)) (<= (+ ?v_62 ?v_42 ?v_20 ?v_54 ?v_71 ?v_27 ?v_4 ?v_58 ?v_88 ?v_22 ?v_89 ?v_18 ?v_73 ?v_61 ?v_103 ?v_108 ?v_75 ?v_35 ?v_59 ?v_74 ?v_9 ?v_105 ?v_68 ?v_115 ?v_86 ?v_57 ?v_4 ?v_36 ?v_62 ?v_25 ?v_48 ?v_109 ?v_21 ?v_39 ?v_102 ?v_72 ?v_9 ?v_69 ?v_19 ?v_75 ?v_119 ?v_57 ?v_28 ?v_109 ?v_109) 1) (<= (+ ?v_68 ?v_108 ?v_34 ?v_82 ?v_104 ?v_30 ?v_47 ?v_128 ?v_6 ?v_66 ?v_23 ?v_115 ?v_123 ?v_43 ?v_1 ?v_41 ?v_63 ?v_72 ?v_83 ?v_74 ?v_79 ?v_9 ?v_60 ?v_77 ?v_23 ?v_87 ?v_75 ?v_9 ?v_55 ?v_6 ?v_38 ?v_98 ?v_63 ?v_20 ?v_21 ?v_82 ?v_63 ?v_10 ?v_121 ?v_92 ?v_22 ?v_59 ?v_75 ?v_38 ?v_49) 0) (<= (+ ?v_46 ?v_64 ?v_35 ?v_2 ?v_46 ?v_60 ?v_100 ?v_68 ?v_114 ?v_27 ?v_28 ?v_110 ?v_59 ?v_84 ?v_38 ?v_18 ?v_1 ?v_92 ?v_27 ?v_47 ?v_65 ?v_50 ?v_21 ?v_120 ?v_113 ?v_58 ?v_93 ?v_28 ?v_38 ?v_39 ?v_59 ?v_96 ?v_106 ?v_124 ?v_60 ?v_60 ?v_4 ?v_88 ?v_77 ?v_36 ?v_107 ?v_114 ?v_68 ?v_88 ?v_129) 0) (<= (+ ?v_78 ?v_72 ?v_106 ?v_91 ?v_53 ?v_106 ?v_2 ?v_58 ?v_33 ?v_60 ?v_1 ?v_45 ?v_124 ?v_90 ?v_7 ?v_78 ?v_60 ?v_24 ?v_59 ?v_63 ?v_47 ?v_68 ?v_52 ?v_94 ?v_35 ?v_24 ?v_67 ?v_94 ?v_132 ?v_5 ?v_104 ?v_77 ?v_24 ?v_49 ?v_84 ?v_77 ?v_13 ?v_122 ?v_63 ?v_113 ?v_13 ?v_96 ?v_96 ?v_37 ?v_38) 1) (<= (+ ?v_11 ?v_1 ?v_14 ?v_59 ?v_28 ?v_32 ?v_108 ?v_79 ?v_68 ?v_17 ?v_55 ?v_91 ?v_87 ?v_4 ?v_72 ?v_20 ?v_31 ?v_91 ?v_27 ?v_118 ?v_132 ?v_2 ?v_20 ?v_77 ?v_125 ?v_127 ?v_132 ?v_10 ?v_2 ?v_22 ?v_7 ?v_59 ?v_107 ?v_78 ?v_9 ?v_10 ?v_20 ?v_4 ?v_20 ?v_68 ?v_92 ?v_110 ?v_24 ?v_84 ?v_108) 1) (<= (+ ?v_92 ?v_133 ?v_96 ?v_55 ?v_74 ?v_29 ?v_66 ?v_83 ?v_68 ?v_115 ?v_93 ?v_85 ?v_79 ?v_97 ?v_71 ?v_20 ?v_87 ?v_45 ?v_40 ?v_57 ?v_79 ?v_16 ?v_8 ?v_4 ?v_106 ?v_93 ?v_18 ?v_63 ?v_127 ?v_19 ?v_112 ?v_113 ?v_63 ?v_92 ?v_94 ?v_119 ?v_81 ?v_43 ?v_39 ?v_18 ?v_78 ?v_124 ?v_58 ?v_126 ?v_19) (- 1)) (<= (+ ?v_3 ?v_18 ?v_66 ?v_122 ?v_71 ?v_106 ?v_47 ?v_93 ?v_130 ?v_1 ?v_130 ?v_77 ?v_89 ?v_102 (* (- 1) x19) ?v_29 ?v_120 ?v_126 ?v_43 ?v_66 ?v_32 ?v_31 ?v_115 ?v_24 ?v_92 ?v_11 ?v_21 ?v_103 ?v_63 ?v_45 ?v_64 ?v_28 ?v_19 ?v_81 ?v_91 ?v_94 ?v_40 ?v_48 ?v_76 ?v_1 ?v_49 ?v_25 ?v_6 ?v_87 ?v_58) 0) (<= (+ ?v_59 ?v_92 ?v_90 ?v_6 ?v_33 ?v_40 ?v_50 ?v_21 ?v_63 ?v_40 ?v_2 ?v_15 ?v_32 ?v_86 ?v_30 ?v_97 ?v_49 ?v_115 ?v_26 ?v_70 ?v_104 ?v_54 ?v_22 ?v_71 ?v_15 ?v_71 ?v_47 ?v_10 ?v_41 ?v_53 ?v_60 ?v_118 ?v_31 ?v_119 ?v_129 ?v_104 ?v_96 ?v_62 ?v_100 ?v_66 ?v_97 ?v_60 ?v_61 ?v_103 ?v_83) 0))))
(check-sat)
(exit)
